% project_assignment_1.dzn

n = 4; % 4 students to consider

p = 5; % topics
l = 4;

projectToLecturer = [1, 3, 3, 2, 4];

% student 1 ranks project 1 at 1, project 2 at 4, etc. 
studentProjectRanks = [| 1, 4, 2, 3, 5 |   % student 1
                         2, 5, 1, 3, 4 |   % student 2
                         1, 2, 3, 5, 4 |   % student 3
                         5, 4, 1, 2, 3 |]; % student 4 

% let's assume - just for test - that we've seen those 2 solutions already
old_solutions = [| 1, 1, 1, 2 | 2, 1, 1, 2|];
